NAME : cgl_66.9290.tour
COMMENT : Length = 9290
COMMENT : Found by LKH-3 [Keld Helsgaun] Fri Nov  8 19:20:30 2024
TYPE : TOUR
DIMENSION : 66
TOUR_SECTION
5
14
26
20
22
21
34
10
33
11
35
37
36
38
42
41
39
40
43
44
45
46
51
48
50
49
47
53
52
57
58
56
55
54
59
60
63
62
61
64
65
66
1
3
2
4
13
9
12
6
7
8
29
28
23
30
32
15
24
19
31
27
17
18
16
25
-1
EOF
